--------------------------------------------------------------------------------(Solver execution current time: 0.00015854835510253906)
[INFO] Input Seed : 0
--------------------------------------------------------------------------------(Solver execution current time: 0.00019288063049316406)
[INFO] Input time limit : 120
--------------------------------------------------------------------------------(Solver execution current time: 0.00022077560424804688)
[INFO] Command line arguments read with no errors.
--------------------------------------------------------------------------------(Solver execution current time: 0.014980792999267578)
[INFO] Input file read with no errors.
--------------------------------------------------------------------------------(Solver execution current time: 0.015059471130371094)
[INFO] Starting solver.
--------------------------------------------------------------------------------(Solver execution current time: 0.015103578567504883)
[INFO] Starting construction
--------------------------------------------------------------------------------(Solver execution current time: 6.606841087341309)
[INFO] Finished construction
--------------------------------------------------------------------------------(Solver execution current time: 6.609968423843384)
[SOLUTION]
Solution after BasicGreedy
obj_value: 8; obj_routes: 1031
Route 1 : 31 40 12 21 81 62 8 71 27 77 45 90 95 58 
Route 2 : 20 28 49 70 43 78 93 99 38 88 
Route 3 : 23 1 73 51 50 36 100 86 
Route 4 : 5 55 13 63 35 14 47 64 85 97 44 94 25 6 56 75 
Route 5 : 26 76 42 17 67 29 92 3 22 79 72 18 68 53 
Route 6 : 30 33 80 7 57 39 10 2 83 60 52 89 48 9 59 37 98 87 
Route 7 : 15 34 84 16 66 32 82 24 74 65 4 46 96 54 
Route 8 : 19 69 11 41 61 91 

--------------------------------------------------------------------------------(Solver execution current time: 6.6104912757873535)
[INFO] Starting metaheuristic
--------------------------------------------------------------------------------(Solver execution current time: 15.36173701286316)
[SOLUTION]
AGES
IT: 1
Exec Time: 8.744941711425781
obj_value: 8; obj_routes: 1031
Route 1 : 31 40 12 21 81 62 8 71 27 77 45 90 95 58 
Route 2 : 20 28 49 70 43 78 93 99 38 88 
Route 3 : 23 1 73 51 50 36 100 86 
Route 4 : 5 55 13 63 35 14 47 64 85 97 44 94 25 6 56 75 
Route 5 : 26 76 42 17 67 29 92 3 22 79 72 18 68 53 
Route 6 : 30 33 80 7 57 39 10 2 83 60 52 89 48 9 59 37 98 87 
Route 7 : 15 34 84 16 66 32 82 24 74 65 4 46 96 54 
Route 8 : 19 69 11 41 61 91 

--------------------------------------------------------------------------------(Solver execution current time: 17.849061250686646)
[SOLUTION]
LNS
IT: 31
Exec Time: 2.484058380126953
Improved
obj_value: 8; obj_routes: 1015
Route 1 : 31 40 12 21 81 62 71 4 45 46 95 90 96 54 
Route 2 : 20 28 49 70 43 78 93 99 38 88 
Route 3 : 23 1 73 51 50 36 100 86 
Route 4 : 5 55 13 35 14 64 85 41 63 91 25 6 56 75 
Route 5 : 26 76 42 17 67 29 92 3 22 79 72 18 68 53 
Route 6 : 47 97 30 33 80 39 10 83 60 89 48 9 59 37 98 87 
Route 7 : 15 34 84 16 66 32 82 24 74 65 27 77 8 58 
Route 8 : 19 2 52 44 69 94 11 7 57 61 

--------------------------------------------------------------------------------(Solver execution current time: 17.970121145248413)
[SOLUTION]
SetPartitionModel
Exec Time: 0.11060452461242676
obj_value: 8; obj_routes: 1015
Route 1 : 20 28 49 70 43 78 93 99 38 88 
Route 2 : 23 1 73 51 50 36 100 86 
Route 3 : 26 76 42 17 67 29 92 3 22 79 72 18 68 53 
Route 4 : 31 40 12 21 81 62 71 4 45 46 95 90 96 54 
Route 5 : 5 55 13 35 14 64 85 41 63 91 25 6 56 75 
Route 6 : 47 97 30 33 80 39 10 83 60 89 48 9 59 37 98 87 
Route 7 : 15 34 84 16 66 32 82 24 74 65 27 77 8 58 
Route 8 : 19 2 52 44 69 94 11 7 57 61 

--------------------------------------------------------------------------------(Solver execution current time: 19.84590435028076)
[SOLUTION]
Original Perturbation
Exec Time: 1.8745262622833252
obj_value: 8; obj_routes: 1108
Route 1 : 31 40 12 21 81 62 19 71 4 69 46 90 96 54 
Route 2 : 20 28 49 70 78 10 60 99 6 38 56 88 
Route 3 : 23 1 73 51 50 100 
Route 4 : 5 55 13 35 85 41 91 63 9 59 16 66 25 75 
Route 5 : 26 76 42 29 44 92 94 3 22 79 72 8 53 58 
Route 6 : 14 33 39 64 43 83 89 48 32 82 27 77 93 98 
Route 7 : 15 34 2 84 52 24 74 65 11 18 61 68 
Route 8 : 17 47 97 67 30 45 80 95 7 57 36 37 87 86 

--------------------------------------------------------------------------------(Solver execution current time: 19.84747815132141)
[SOLUTION]
SBMath
IT: 1
ITs witout improving: 1
IT time: 13.233112573623657
Time since begin: 13.234994411468506
obj_value: 8; obj_routes: 1108
Route 1 : 31 40 12 21 81 62 19 71 4 69 46 90 96 54 
Route 2 : 20 28 49 70 78 10 60 99 6 38 56 88 
Route 3 : 23 1 73 51 50 100 
Route 4 : 5 55 13 35 85 41 91 63 9 59 16 66 25 75 
Route 5 : 26 76 42 29 44 92 94 3 22 79 72 8 53 58 
Route 6 : 14 33 39 64 43 83 89 48 32 82 27 77 93 98 
Route 7 : 15 34 2 84 52 24 74 65 11 18 61 68 
Route 8 : 17 47 97 67 30 45 80 95 7 57 36 37 87 86 

--------------------------------------------------------------------------------(Solver execution current time: 19.847663402557373)
[SOLUTION]
SBMath
IT: 1
ITs witout improving: 1
IT time: 13.233112573623657
Time since begin: 13.234994411468506
obj_value: 8; obj_routes: 1015
Route 1 : 31 40 12 21 81 62 71 4 45 46 95 90 96 54 
Route 2 : 20 28 49 70 43 78 93 99 38 88 
Route 3 : 23 1 73 51 50 36 100 86 
Route 4 : 5 55 13 35 14 64 85 41 63 91 25 6 56 75 
Route 5 : 26 76 42 17 67 29 92 3 22 79 72 18 68 53 
Route 6 : 47 97 30 33 80 39 10 83 60 89 48 9 59 37 98 87 
Route 7 : 15 34 84 16 66 32 82 24 74 65 27 77 8 58 
Route 8 : 19 2 52 44 69 94 11 7 57 61 

--------------------------------------------------------------------------------(Solver execution current time: 27.58020830154419)
[SOLUTION]
AGES
IT: 1
Exec Time: 7.729279518127441
obj_value: 8; obj_routes: 1108
Route 1 : 31 40 12 21 81 62 19 71 4 69 46 90 96 54 
Route 2 : 20 28 49 70 78 10 60 99 6 38 56 88 
Route 3 : 23 1 73 51 50 100 
Route 4 : 5 55 13 35 85 41 91 63 9 59 16 66 25 75 
Route 5 : 26 76 42 29 44 92 94 3 22 79 72 8 53 58 
Route 6 : 14 33 39 64 43 83 89 48 32 82 27 77 93 98 
Route 7 : 15 34 2 84 52 24 74 65 11 18 61 68 
Route 8 : 17 47 97 67 30 45 80 95 7 57 36 37 87 86 

--------------------------------------------------------------------------------(Solver execution current time: 32.2518584728241)
[SOLUTION]
LNS
IT: 40
Exec Time: 4.668445825576782
obj_value: 8; obj_routes: 1108
Route 1 : 31 40 12 21 81 62 19 71 4 69 46 90 96 54 
Route 2 : 20 28 49 70 78 10 60 99 6 38 56 88 
Route 3 : 23 1 73 51 50 100 
Route 4 : 5 55 13 35 85 41 91 63 9 59 16 66 25 75 
Route 5 : 26 76 42 29 44 92 94 3 22 79 72 8 53 58 
Route 6 : 14 33 39 64 43 83 89 48 32 82 27 77 93 98 
Route 7 : 15 34 2 84 52 24 74 65 11 18 61 68 
Route 8 : 17 47 97 67 30 45 80 95 7 57 36 37 87 86 

--------------------------------------------------------------------------------(Solver execution current time: 32.26196074485779)
[SOLUTION]
SetPartitionModel
Exec Time: 0.007181882858276367
Improvedobj_value: 8; obj_routes: 1015
Route 1 : 20 28 49 70 43 78 93 99 38 88 
Route 2 : 23 1 73 51 50 36 100 86 
Route 3 : 26 76 42 17 67 29 92 3 22 79 72 18 68 53 
Route 4 : 31 40 12 21 81 62 71 4 45 46 95 90 96 54 
Route 5 : 5 55 13 35 14 64 85 41 63 91 25 6 56 75 
Route 6 : 47 97 30 33 80 39 10 83 60 89 48 9 59 37 98 87 
Route 7 : 15 34 84 16 66 32 82 24 74 65 27 77 8 58 
Route 8 : 19 2 52 44 69 94 11 7 57 61 

--------------------------------------------------------------------------------(Solver execution current time: 34.11184549331665)
[SOLUTION]
Original Perturbation
Exec Time: 1.8490095138549805
obj_value: 8; obj_routes: 1083
Route 1 : 31 40 12 21 81 62 19 71 43 69 46 93 90 96 
Route 2 : 20 28 49 70 78 10 60 99 36 86 
Route 3 : 23 1 73 51 8 58 
Route 4 : 5 55 13 63 29 16 66 34 79 84 25 75 50 100 
Route 5 : 26 76 42 38 92 88 24 74 3 22 72 53 
Route 6 : 17 67 41 91 7 39 57 89 48 27 4 77 6 98 54 56 
Route 7 : 15 30 80 35 2 44 52 65 94 85 11 18 61 68 
Route 8 : 47 33 83 97 14 45 64 37 87 32 82 9 59 95 

--------------------------------------------------------------------------------(Solver execution current time: 34.113309383392334)
[SOLUTION]
SBMath
IT: 2
ITs witout improving: 2
IT time: 14.264694452285767
Time since begin: 27.50082540512085
obj_value: 8; obj_routes: 1083
Route 1 : 31 40 12 21 81 62 19 71 43 69 46 93 90 96 
Route 2 : 20 28 49 70 78 10 60 99 36 86 
Route 3 : 23 1 73 51 8 58 
Route 4 : 5 55 13 63 29 16 66 34 79 84 25 75 50 100 
Route 5 : 26 76 42 38 92 88 24 74 3 22 72 53 
Route 6 : 17 67 41 91 7 39 57 89 48 27 4 77 6 98 54 56 
Route 7 : 15 30 80 35 2 44 52 65 94 85 11 18 61 68 
Route 8 : 47 33 83 97 14 45 64 37 87 32 82 9 59 95 

--------------------------------------------------------------------------------(Solver execution current time: 34.11351251602173)
[SOLUTION]
SBMath
IT: 2
ITs witout improving: 2
IT time: 14.264694452285767
Time since begin: 27.50082540512085
obj_value: 8; obj_routes: 1015
Route 1 : 31 40 12 21 81 62 71 4 45 46 95 90 96 54 
Route 2 : 20 28 49 70 43 78 93 99 38 88 
Route 3 : 23 1 73 51 50 36 100 86 
Route 4 : 5 55 13 35 14 64 85 41 63 91 25 6 56 75 
Route 5 : 26 76 42 17 67 29 92 3 22 79 72 18 68 53 
Route 6 : 47 97 30 33 80 39 10 83 60 89 48 9 59 37 98 87 
Route 7 : 15 34 84 16 66 32 82 24 74 65 27 77 8 58 
Route 8 : 19 2 52 44 69 94 11 7 57 61 

--------------------------------------------------------------------------------(Solver execution current time: 38.662816524505615)
[SOLUTION]
AGES
IT: 1
Exec Time: 4.545888900756836
obj_value: 8; obj_routes: 1083
Route 1 : 31 40 12 21 81 62 19 71 43 69 46 93 90 96 
Route 2 : 20 28 49 70 78 10 60 99 36 86 
Route 3 : 23 1 73 51 8 58 
Route 4 : 5 55 13 63 29 16 66 34 79 84 25 75 50 100 
Route 5 : 26 76 42 38 92 88 24 74 3 22 72 53 
Route 6 : 17 67 41 91 7 39 57 89 48 27 4 77 6 98 54 56 
Route 7 : 15 30 80 35 2 44 52 65 94 85 11 18 61 68 
Route 8 : 47 33 83 97 14 45 64 37 87 32 82 9 59 95 

--------------------------------------------------------------------------------(Solver execution current time: 42.34497666358948)
[SOLUTION]
LNS
IT: 40
Exec Time: 3.676204204559326
obj_value: 8; obj_routes: 1083
Route 1 : 31 40 12 21 81 62 19 71 43 69 46 93 90 96 
Route 2 : 20 28 49 70 78 10 60 99 36 86 
Route 3 : 23 1 73 51 8 58 
Route 4 : 5 55 13 63 29 16 66 34 79 84 25 75 50 100 
Route 5 : 26 76 42 38 92 88 24 74 3 22 72 53 
Route 6 : 17 67 41 91 7 39 57 89 48 27 4 77 6 98 54 56 
Route 7 : 15 30 80 35 2 44 52 65 94 85 11 18 61 68 
Route 8 : 47 33 83 97 14 45 64 37 87 32 82 9 59 95 

--------------------------------------------------------------------------------(Solver execution current time: 42.35697054862976)
[SOLUTION]
SetPartitionModel
Exec Time: 0.009334325790405273
Improvedobj_value: 8; obj_routes: 1015
Route 1 : 20 28 49 70 43 78 93 99 38 88 
Route 2 : 23 1 73 51 50 36 100 86 
Route 3 : 26 76 42 17 67 29 92 3 22 79 72 18 68 53 
Route 4 : 31 40 12 21 81 62 71 4 45 46 95 90 96 54 
Route 5 : 5 55 13 35 14 64 85 41 63 91 25 6 56 75 
Route 6 : 47 97 30 33 80 39 10 83 60 89 48 9 59 37 98 87 
Route 7 : 15 34 84 16 66 32 82 24 74 65 27 77 8 58 
Route 8 : 19 2 52 44 69 94 11 7 57 61 

--------------------------------------------------------------------------------(Solver execution current time: 44.2002592086792)
[SOLUTION]
Original Perturbation
Exec Time: 1.8423726558685303
obj_value: 8; obj_routes: 1087
Route 1 : 31 40 12 21 81 62 19 71 69 46 90 96 
Route 2 : 20 28 49 70 78 10 60 8 99 58 
Route 3 : 23 1 73 51 11 61 
Route 4 : 13 15 44 94 43 65 63 16 66 50 100 18 93 68 
Route 5 : 26 76 47 97 38 88 24 74 3 22 72 53 
Route 6 : 5 55 34 41 84 91 30 80 7 39 57 89 9 59 6 56 37 87 
Route 7 : 48 35 17 67 2 29 52 85 79 27 77 25 75 98 
Route 8 : 33 42 83 14 92 45 64 32 82 4 54 95 36 86 

--------------------------------------------------------------------------------(Solver execution current time: 44.202433347702026)
[SOLUTION]
SBMath
IT: 3
ITs witout improving: 3
IT time: 10.087955713272095
Time since begin: 37.589948892593384
obj_value: 8; obj_routes: 1087
Route 1 : 31 40 12 21 81 62 19 71 69 46 90 96 
Route 2 : 20 28 49 70 78 10 60 8 99 58 
Route 3 : 23 1 73 51 11 61 
Route 4 : 13 15 44 94 43 65 63 16 66 50 100 18 93 68 
Route 5 : 26 76 47 97 38 88 24 74 3 22 72 53 
Route 6 : 5 55 34 41 84 91 30 80 7 39 57 89 9 59 6 56 37 87 
Route 7 : 48 35 17 67 2 29 52 85 79 27 77 25 75 98 
Route 8 : 33 42 83 14 92 45 64 32 82 4 54 95 36 86 

--------------------------------------------------------------------------------(Solver execution current time: 44.202739000320435)
[SOLUTION]
SBMath
IT: 3
ITs witout improving: 3
IT time: 10.087955713272095
Time since begin: 37.589948892593384
obj_value: 8; obj_routes: 1015
Route 1 : 31 40 12 21 81 62 71 4 45 46 95 90 96 54 
Route 2 : 20 28 49 70 43 78 93 99 38 88 
Route 3 : 23 1 73 51 50 36 100 86 
Route 4 : 5 55 13 35 14 64 85 41 63 91 25 6 56 75 
Route 5 : 26 76 42 17 67 29 92 3 22 79 72 18 68 53 
Route 6 : 47 97 30 33 80 39 10 83 60 89 48 9 59 37 98 87 
Route 7 : 15 34 84 16 66 32 82 24 74 65 27 77 8 58 
Route 8 : 19 2 52 44 69 94 11 7 57 61 

--------------------------------------------------------------------------------(Solver execution current time: 49.94038105010986)
[SOLUTION]
AGES
IT: 1
Exec Time: 5.734127521514893
obj_value: 8; obj_routes: 1087
Route 1 : 31 40 12 21 81 62 19 71 69 46 90 96 
Route 2 : 20 28 49 70 78 10 60 8 99 58 
Route 3 : 23 1 73 51 11 61 
Route 4 : 13 15 44 94 43 65 63 16 66 50 100 18 93 68 
Route 5 : 26 76 47 97 38 88 24 74 3 22 72 53 
Route 6 : 5 55 34 41 84 91 30 80 7 39 57 89 9 59 6 56 37 87 
Route 7 : 48 35 17 67 2 29 52 85 79 27 77 25 75 98 
Route 8 : 33 42 83 14 92 45 64 32 82 4 54 95 36 86 

--------------------------------------------------------------------------------(Solver execution current time: 52.98232889175415)
[SOLUTION]
LNS
IT: 40
Exec Time: 3.0367414951324463
Improved
obj_value: 8; obj_routes: 1031
Route 1 : 31 40 12 21 81 62 19 71 44 69 94 48 98 90 
Route 2 : 20 28 49 70 78 10 60 8 99 58 
Route 3 : 23 1 73 51 11 61 
Route 4 : 13 15 43 65 63 16 66 41 93 91 18 46 68 96 
Route 5 : 26 27 76 42 38 92 88 3 22 77 72 53 
Route 6 : 5 55 34 84 30 80 39 89 9 59 24 74 6 56 37 87 
Route 7 : 35 17 67 2 29 52 45 85 79 25 95 75 
Route 8 : 14 64 33 47 97 83 32 82 7 4 57 50 54 36 100 86 

--------------------------------------------------------------------------------(Solver execution current time: 52.99612092971802)
[SOLUTION]
SetPartitionModel
Exec Time: 0.011073827743530273
Improvedobj_value: 8; obj_routes: 1015
Route 1 : 20 28 49 70 43 78 93 99 38 88 
Route 2 : 23 1 73 51 50 36 100 86 
Route 3 : 26 76 42 17 67 29 92 3 22 79 72 18 68 53 
Route 4 : 31 40 12 21 81 62 71 4 45 46 95 90 96 54 
Route 5 : 5 55 13 35 14 64 85 41 63 91 25 6 56 75 
Route 6 : 47 97 30 33 80 39 10 83 60 89 48 9 59 37 98 87 
Route 7 : 15 34 84 16 66 32 82 24 74 65 27 77 8 58 
Route 8 : 19 2 52 44 69 94 11 7 57 61 

--------------------------------------------------------------------------------(Solver execution current time: 54.89984464645386)
[SOLUTION]
Original Perturbation
Exec Time: 1.9028756618499756
obj_value: 8; obj_routes: 1101
Route 1 : 31 40 12 21 81 62 19 71 44 69 94 48 98 90 
Route 2 : 20 28 49 70 78 10 60 8 99 58 
Route 3 : 23 1 73 51 11 61 
Route 4 : 15 13 65 63 16 66 18 46 68 6 56 50 96 100 
Route 5 : 26 41 27 76 32 82 34 91 84 3 22 77 72 53 
Route 6 : 47 30 80 7 57 9 59 29 97 24 79 74 37 87 
Route 7 : 35 17 67 2 42 52 92 85 39 89 43 25 93 75 
Route 8 : 5 55 33 38 14 64 45 88 83 4 95 54 36 86 

--------------------------------------------------------------------------------(Solver execution current time: 54.90132451057434)
[SOLUTION]
SBMath
IT: 4
ITs witout improving: 4
IT time: 10.69745421409607
Time since begin: 48.288841009140015
obj_value: 8; obj_routes: 1101
Route 1 : 31 40 12 21 81 62 19 71 44 69 94 48 98 90 
Route 2 : 20 28 49 70 78 10 60 8 99 58 
Route 3 : 23 1 73 51 11 61 
Route 4 : 15 13 65 63 16 66 18 46 68 6 56 50 96 100 
Route 5 : 26 41 27 76 32 82 34 91 84 3 22 77 72 53 
Route 6 : 47 30 80 7 57 9 59 29 97 24 79 74 37 87 
Route 7 : 35 17 67 2 42 52 92 85 39 89 43 25 93 75 
Route 8 : 5 55 33 38 14 64 45 88 83 4 95 54 36 86 

--------------------------------------------------------------------------------(Solver execution current time: 54.90153217315674)
[SOLUTION]
SBMath
IT: 4
ITs witout improving: 4
IT time: 10.69745421409607
Time since begin: 48.288841009140015
obj_value: 8; obj_routes: 1015
Route 1 : 31 40 12 21 81 62 71 4 45 46 95 90 96 54 
Route 2 : 20 28 49 70 43 78 93 99 38 88 
Route 3 : 23 1 73 51 50 36 100 86 
Route 4 : 5 55 13 35 14 64 85 41 63 91 25 6 56 75 
Route 5 : 26 76 42 17 67 29 92 3 22 79 72 18 68 53 
Route 6 : 47 97 30 33 80 39 10 83 60 89 48 9 59 37 98 87 
Route 7 : 15 34 84 16 66 32 82 24 74 65 27 77 8 58 
Route 8 : 19 2 52 44 69 94 11 7 57 61 

--------------------------------------------------------------------------------(Solver execution current time: 59.41310119628906)
[SOLUTION]
AGES
IT: 1
Exec Time: 4.508316278457642
obj_value: 8; obj_routes: 1101
Route 1 : 31 40 12 21 81 62 19 71 44 69 94 48 98 90 
Route 2 : 20 28 49 70 78 10 60 8 99 58 
Route 3 : 23 1 73 51 11 61 
Route 4 : 15 13 65 63 16 66 18 46 68 6 56 50 96 100 
Route 5 : 26 41 27 76 32 82 34 91 84 3 22 77 72 53 
Route 6 : 47 30 80 7 57 9 59 29 97 24 79 74 37 87 
Route 7 : 35 17 67 2 42 52 92 85 39 89 43 25 93 75 
Route 8 : 5 55 33 38 14 64 45 88 83 4 95 54 36 86 

--------------------------------------------------------------------------------(Solver execution current time: 63.49983096122742)
[SOLUTION]
LNS
IT: 40
Exec Time: 4.083438873291016
obj_value: 8; obj_routes: 1101
Route 1 : 31 40 12 21 81 62 19 71 44 69 94 48 98 90 
Route 2 : 20 28 49 70 78 10 60 8 99 58 
Route 3 : 23 1 73 51 11 61 
Route 4 : 15 13 65 63 16 66 18 46 68 6 56 50 96 100 
Route 5 : 26 41 27 76 32 82 34 91 84 3 22 77 72 53 
Route 6 : 47 30 80 7 57 9 59 29 97 24 79 74 37 87 
Route 7 : 35 17 67 2 42 52 92 85 39 89 43 25 93 75 
Route 8 : 5 55 33 38 14 64 45 88 83 4 95 54 36 86 

--------------------------------------------------------------------------------(Solver execution current time: 63.51456689834595)
[SOLUTION]
SetPartitionModel
Exec Time: 0.012216567993164062
Improvedobj_value: 8; obj_routes: 1015
Route 1 : 20 28 49 70 43 78 93 99 38 88 
Route 2 : 23 1 73 51 50 36 100 86 
Route 3 : 26 76 42 17 67 29 92 3 22 79 72 18 68 53 
Route 4 : 31 40 12 21 81 62 71 4 45 46 95 90 96 54 
Route 5 : 5 55 13 35 14 64 85 41 63 91 25 6 56 75 
Route 6 : 47 97 30 33 80 39 10 83 60 89 48 9 59 37 98 87 
Route 7 : 15 34 84 16 66 32 82 24 74 65 27 77 8 58 
Route 8 : 19 2 52 44 69 94 11 7 57 61 

--------------------------------------------------------------------------------(Solver execution current time: 64.86501860618591)
[SOLUTION]
Original Perturbation
Exec Time: 1.3496203422546387
obj_value: 8; obj_routes: 1077
Route 1 : 31 40 12 21 81 62 19 71 10 60 44 69 94 90 
Route 2 : 20 28 49 70 78 4 18 99 68 54 
Route 3 : 23 1 73 51 11 61 
Route 4 : 15 17 67 30 80 43 65 7 57 25 75 50 93 100 
Route 5 : 26 41 76 32 82 34 91 84 3 22 72 6 56 36 86 53 
Route 6 : 47 9 59 13 63 29 97 79 45 37 95 87 
Route 7 : 42 35 2 92 52 24 27 74 85 8 77 38 88 58 
Route 8 : 5 55 39 33 14 89 64 83 46 48 16 66 96 98 

--------------------------------------------------------------------------------(Solver execution current time: 64.8664755821228)
[SOLUTION]
SBMath
IT: 5
ITs witout improving: 5
IT time: 9.963966846466064
Time since begin: 58.25399160385132
obj_value: 8; obj_routes: 1077
Route 1 : 31 40 12 21 81 62 19 71 10 60 44 69 94 90 
Route 2 : 20 28 49 70 78 4 18 99 68 54 
Route 3 : 23 1 73 51 11 61 
Route 4 : 15 17 67 30 80 43 65 7 57 25 75 50 93 100 
Route 5 : 26 41 76 32 82 34 91 84 3 22 72 6 56 36 86 53 
Route 6 : 47 9 59 13 63 29 97 79 45 37 95 87 
Route 7 : 42 35 2 92 52 24 27 74 85 8 77 38 88 58 
Route 8 : 5 55 39 33 14 89 64 83 46 48 16 66 96 98 

--------------------------------------------------------------------------------(Solver execution current time: 64.8666570186615)
[SOLUTION]
SBMath
IT: 5
ITs witout improving: 5
IT time: 9.963966846466064
Time since begin: 58.25399160385132
obj_value: 8; obj_routes: 1015
Route 1 : 31 40 12 21 81 62 71 4 45 46 95 90 96 54 
Route 2 : 20 28 49 70 43 78 93 99 38 88 
Route 3 : 23 1 73 51 50 36 100 86 
Route 4 : 5 55 13 35 14 64 85 41 63 91 25 6 56 75 
Route 5 : 26 76 42 17 67 29 92 3 22 79 72 18 68 53 
Route 6 : 47 97 30 33 80 39 10 83 60 89 48 9 59 37 98 87 
Route 7 : 15 34 84 16 66 32 82 24 74 65 27 77 8 58 
Route 8 : 19 2 52 44 69 94 11 7 57 61 

--------------------------------------------------------------------------------(Solver execution current time: 68.77666020393372)
[SOLUTION]
AGES
IT: 1
Exec Time: 3.906742811203003
obj_value: 8; obj_routes: 1077
Route 1 : 31 40 12 21 81 62 19 71 10 60 44 69 94 90 
Route 2 : 20 28 49 70 78 4 18 99 68 54 
Route 3 : 23 1 73 51 11 61 
Route 4 : 15 17 67 30 80 43 65 7 57 25 75 50 93 100 
Route 5 : 26 41 76 32 82 34 91 84 3 22 72 6 56 36 86 53 
Route 6 : 47 9 59 13 63 29 97 79 45 37 95 87 
Route 7 : 42 35 2 92 52 24 27 74 85 8 77 38 88 58 
Route 8 : 5 55 39 33 14 89 64 83 46 48 16 66 96 98 

--------------------------------------------------------------------------------(Solver execution current time: 71.2922911643982)
[SOLUTION]
LNS
IT: 40
Exec Time: 2.512403964996338
obj_value: 8; obj_routes: 1077
Route 1 : 31 40 12 21 81 62 19 71 10 60 44 69 94 90 
Route 2 : 20 28 49 70 78 4 18 99 68 54 
Route 3 : 23 1 73 51 11 61 
Route 4 : 15 17 67 30 80 43 65 7 57 25 75 50 93 100 
Route 5 : 26 41 76 32 82 34 91 84 3 22 72 6 56 36 86 53 
Route 6 : 47 9 59 13 63 29 97 79 45 37 95 87 
Route 7 : 42 35 2 92 52 24 27 74 85 8 77 38 88 58 
Route 8 : 5 55 39 33 14 89 64 83 46 48 16 66 96 98 

--------------------------------------------------------------------------------(Solver execution current time: 71.30899691581726)
[SOLUTION]
SetPartitionModel
Exec Time: 0.0140533447265625
Improvedobj_value: 8; obj_routes: 1015
Route 1 : 20 28 49 70 43 78 93 99 38 88 
Route 2 : 23 1 73 51 50 36 100 86 
Route 3 : 26 76 42 17 67 29 92 3 22 79 72 18 68 53 
Route 4 : 31 40 12 21 81 62 71 4 45 46 95 90 96 54 
Route 5 : 5 55 13 35 14 64 85 41 63 91 25 6 56 75 
Route 6 : 47 97 30 33 80 39 10 83 60 89 48 9 59 37 98 87 
Route 7 : 15 34 84 16 66 32 82 24 74 65 27 77 8 58 
Route 8 : 19 2 52 44 69 94 11 7 57 61 

--------------------------------------------------------------------------------(Solver execution current time: 73.61497664451599)
[SOLUTION]
Original Perturbation
Exec Time: 2.305138111114502
obj_value: 8; obj_routes: 1079
Route 1 : 31 40 12 21 81 62 19 71 44 69 94 90 37 87 
Route 2 : 20 28 49 70 78 18 68 99 38 88 
Route 3 : 23 1 73 51 11 61 
Route 4 : 15 13 63 2 17 67 52 45 43 65 27 77 95 50 93 100 
Route 5 : 26 47 76 32 82 97 3 22 72 6 56 8 53 58 
Route 6 : 33 29 83 14 64 34 79 84 25 4 75 54 
Route 7 : 30 80 42 35 92 24 74 85 36 16 66 86 
Route 8 : 5 55 39 7 57 10 89 60 41 46 91 48 9 59 96 98 

--------------------------------------------------------------------------------(Solver execution current time: 73.61650943756104)
[SOLUTION]
SBMath
IT: 6
ITs witout improving: 6
IT time: 8.748891115188599
Time since begin: 67.00402569770813
obj_value: 8; obj_routes: 1079
Route 1 : 31 40 12 21 81 62 19 71 44 69 94 90 37 87 
Route 2 : 20 28 49 70 78 18 68 99 38 88 
Route 3 : 23 1 73 51 11 61 
Route 4 : 15 13 63 2 17 67 52 45 43 65 27 77 95 50 93 100 
Route 5 : 26 47 76 32 82 97 3 22 72 6 56 8 53 58 
Route 6 : 33 29 83 14 64 34 79 84 25 4 75 54 
Route 7 : 30 80 42 35 92 24 74 85 36 16 66 86 
Route 8 : 5 55 39 7 57 10 89 60 41 46 91 48 9 59 96 98 

--------------------------------------------------------------------------------(Solver execution current time: 73.61669898033142)
[SOLUTION]
SBMath
IT: 6
ITs witout improving: 6
IT time: 8.748891115188599
Time since begin: 67.00402569770813
obj_value: 8; obj_routes: 1015
Route 1 : 31 40 12 21 81 62 71 4 45 46 95 90 96 54 
Route 2 : 20 28 49 70 43 78 93 99 38 88 
Route 3 : 23 1 73 51 50 36 100 86 
Route 4 : 5 55 13 35 14 64 85 41 63 91 25 6 56 75 
Route 5 : 26 76 42 17 67 29 92 3 22 79 72 18 68 53 
Route 6 : 47 97 30 33 80 39 10 83 60 89 48 9 59 37 98 87 
Route 7 : 15 34 84 16 66 32 82 24 74 65 27 77 8 58 
Route 8 : 19 2 52 44 69 94 11 7 57 61 

--------------------------------------------------------------------------------(Solver execution current time: 79.66340827941895)
[SOLUTION]
AGES
IT: 1
Exec Time: 6.043388366699219
obj_value: 8; obj_routes: 1079
Route 1 : 31 40 12 21 81 62 19 71 44 69 94 90 37 87 
Route 2 : 20 28 49 70 78 18 68 99 38 88 
Route 3 : 23 1 73 51 11 61 
Route 4 : 15 13 63 2 17 67 52 45 43 65 27 77 95 50 93 100 
Route 5 : 26 47 76 32 82 97 3 22 72 6 56 8 53 58 
Route 6 : 33 29 83 14 64 34 79 84 25 4 75 54 
Route 7 : 30 80 42 35 92 24 74 85 36 16 66 86 
Route 8 : 5 55 39 7 57 10 89 60 41 46 91 48 9 59 96 98 

--------------------------------------------------------------------------------(Solver execution current time: 83.26386666297913)
[SOLUTION]
LNS
IT: 40
Exec Time: 3.596992254257202
obj_value: 8; obj_routes: 1079
Route 1 : 31 40 12 21 81 62 19 71 44 69 94 90 37 87 
Route 2 : 20 28 49 70 78 18 68 99 38 88 
Route 3 : 23 1 73 51 11 61 
Route 4 : 15 13 63 2 17 67 52 45 43 65 27 77 95 50 93 100 
Route 5 : 26 47 76 32 82 97 3 22 72 6 56 8 53 58 
Route 6 : 33 29 83 14 64 34 79 84 25 4 75 54 
Route 7 : 30 80 42 35 92 24 74 85 36 16 66 86 
Route 8 : 5 55 39 7 57 10 89 60 41 46 91 48 9 59 96 98 

--------------------------------------------------------------------------------(Solver execution current time: 83.28415441513062)
[SOLUTION]
SetPartitionModel
Exec Time: 0.0174257755279541
Improvedobj_value: 8; obj_routes: 1015
Route 1 : 20 28 49 70 43 78 93 99 38 88 
Route 2 : 23 1 73 51 50 36 100 86 
Route 3 : 26 76 42 17 67 29 92 3 22 79 72 18 68 53 
Route 4 : 31 40 12 21 81 62 71 4 45 46 95 90 96 54 
Route 5 : 5 55 13 35 14 64 85 41 63 91 25 6 56 75 
Route 6 : 47 97 30 33 80 39 10 83 60 89 48 9 59 37 98 87 
Route 7 : 15 34 84 16 66 32 82 24 74 65 27 77 8 58 
Route 8 : 19 2 52 44 69 94 11 7 57 61 

--------------------------------------------------------------------------------(Solver execution current time: 84.69433283805847)
[SOLUTION]
Original Perturbation
Exec Time: 1.4092953205108643
obj_value: 8; obj_routes: 1054
Route 1 : 31 40 12 21 81 62 19 71 44 69 94 90 37 87 
Route 2 : 20 28 49 70 78 18 68 99 38 88 
Route 3 : 23 1 73 51 6 56 48 98 
Route 4 : 15 13 63 17 67 42 92 45 43 65 95 93 36 86 
Route 5 : 26 76 34 2 29 84 52 3 22 79 72 8 53 58 
Route 6 : 33 83 24 27 14 64 47 74 97 77 25 4 75 54 
Route 7 : 35 10 85 11 60 61 32 82 7 57 
Route 8 : 5 55 41 30 80 16 66 39 89 91 46 9 59 50 96 100 

--------------------------------------------------------------------------------(Solver execution current time: 84.69577717781067)
[SOLUTION]
SBMath
IT: 7
ITs witout improving: 7
IT time: 11.078043937683105
Time since begin: 78.0832929611206
obj_value: 8; obj_routes: 1054
Route 1 : 31 40 12 21 81 62 19 71 44 69 94 90 37 87 
Route 2 : 20 28 49 70 78 18 68 99 38 88 
Route 3 : 23 1 73 51 6 56 48 98 
Route 4 : 15 13 63 17 67 42 92 45 43 65 95 93 36 86 
Route 5 : 26 76 34 2 29 84 52 3 22 79 72 8 53 58 
Route 6 : 33 83 24 27 14 64 47 74 97 77 25 4 75 54 
Route 7 : 35 10 85 11 60 61 32 82 7 57 
Route 8 : 5 55 41 30 80 16 66 39 89 91 46 9 59 50 96 100 

--------------------------------------------------------------------------------(Solver execution current time: 84.69596791267395)
[SOLUTION]
SBMath
IT: 7
ITs witout improving: 7
IT time: 11.078043937683105
Time since begin: 78.0832929611206
obj_value: 8; obj_routes: 1015
Route 1 : 31 40 12 21 81 62 71 4 45 46 95 90 96 54 
Route 2 : 20 28 49 70 43 78 93 99 38 88 
Route 3 : 23 1 73 51 50 36 100 86 
Route 4 : 5 55 13 35 14 64 85 41 63 91 25 6 56 75 
Route 5 : 26 76 42 17 67 29 92 3 22 79 72 18 68 53 
Route 6 : 47 97 30 33 80 39 10 83 60 89 48 9 59 37 98 87 
Route 7 : 15 34 84 16 66 32 82 24 74 65 27 77 8 58 
Route 8 : 19 2 52 44 69 94 11 7 57 61 

--------------------------------------------------------------------------------(Solver execution current time: 93.89302825927734)
[SOLUTION]
AGES
IT: 1
Exec Time: 9.193792581558228
obj_value: 8; obj_routes: 1054
Route 1 : 31 40 12 21 81 62 19 71 44 69 94 90 37 87 
Route 2 : 20 28 49 70 78 18 68 99 38 88 
Route 3 : 23 1 73 51 6 56 48 98 
Route 4 : 15 13 63 17 67 42 92 45 43 65 95 93 36 86 
Route 5 : 26 76 34 2 29 84 52 3 22 79 72 8 53 58 
Route 6 : 33 83 24 27 14 64 47 74 97 77 25 4 75 54 
Route 7 : 35 10 85 11 60 61 32 82 7 57 
Route 8 : 5 55 41 30 80 16 66 39 89 91 46 9 59 50 96 100 

--------------------------------------------------------------------------------(Solver execution current time: 96.20744609832764)
[SOLUTION]
LNS
IT: 40
Exec Time: 2.3110997676849365
obj_value: 8; obj_routes: 1054
Route 1 : 31 40 12 21 81 62 19 71 44 69 94 90 37 87 
Route 2 : 20 28 49 70 78 18 68 99 38 88 
Route 3 : 23 1 73 51 6 56 48 98 
Route 4 : 15 13 63 17 67 42 92 45 43 65 95 93 36 86 
Route 5 : 26 76 34 2 29 84 52 3 22 79 72 8 53 58 
Route 6 : 33 83 24 27 14 64 47 74 97 77 25 4 75 54 
Route 7 : 35 10 85 11 60 61 32 82 7 57 
Route 8 : 5 55 41 30 80 16 66 39 89 91 46 9 59 50 96 100 

--------------------------------------------------------------------------------(Solver execution current time: 96.22867584228516)
[SOLUTION]
SetPartitionModel
Exec Time: 0.018668174743652344
Improvedobj_value: 8; obj_routes: 1015
Route 1 : 20 28 49 70 43 78 93 99 38 88 
Route 2 : 23 1 73 51 50 36 100 86 
Route 3 : 26 76 42 17 67 29 92 3 22 79 72 18 68 53 
Route 4 : 31 40 12 21 81 62 71 4 45 46 95 90 96 54 
Route 5 : 5 55 13 35 14 64 85 41 63 91 25 6 56 75 
Route 6 : 47 97 30 33 80 39 10 83 60 89 48 9 59 37 98 87 
Route 7 : 15 34 84 16 66 32 82 24 74 65 27 77 8 58 
Route 8 : 19 2 52 44 69 94 11 7 57 61 

--------------------------------------------------------------------------------(Solver execution current time: 97.4948513507843)
[SOLUTION]
Original Perturbation
Exec Time: 1.265305995941162
obj_value: 8; obj_routes: 1034
Route 1 : 31 40 12 21 81 62 19 71 44 94 69 18 68 90 
Route 2 : 20 28 49 70 78 99 
Route 3 : 23 1 73 51 11 61 
Route 4 : 15 17 67 35 10 14 64 65 85 60 46 7 57 8 96 58 
Route 5 : 26 76 34 2 29 84 52 3 22 79 4 72 54 53 
Route 6 : 38 30 80 24 43 74 25 75 37 93 87 88 
Route 7 : 13 42 63 92 45 47 97 32 82 36 48 98 95 6 56 86 
Route 8 : 5 55 41 16 66 39 33 27 77 89 83 91 9 59 50 100 

--------------------------------------------------------------------------------(Solver execution current time: 97.49625778198242)
[SOLUTION]
SBMath
IT: 8
ITs witout improving: 8
IT time: 12.799323320388794
Time since begin: 90.88377380371094
obj_value: 8; obj_routes: 1034
Route 1 : 31 40 12 21 81 62 19 71 44 94 69 18 68 90 
Route 2 : 20 28 49 70 78 99 
Route 3 : 23 1 73 51 11 61 
Route 4 : 15 17 67 35 10 14 64 65 85 60 46 7 57 8 96 58 
Route 5 : 26 76 34 2 29 84 52 3 22 79 4 72 54 53 
Route 6 : 38 30 80 24 43 74 25 75 37 93 87 88 
Route 7 : 13 42 63 92 45 47 97 32 82 36 48 98 95 6 56 86 
Route 8 : 5 55 41 16 66 39 33 27 77 89 83 91 9 59 50 100 

--------------------------------------------------------------------------------(Solver execution current time: 97.49644207954407)
[SOLUTION]
SBMath
IT: 8
ITs witout improving: 8
IT time: 12.799323320388794
Time since begin: 90.88377380371094
obj_value: 8; obj_routes: 1015
Route 1 : 31 40 12 21 81 62 71 4 45 46 95 90 96 54 
Route 2 : 20 28 49 70 43 78 93 99 38 88 
Route 3 : 23 1 73 51 50 36 100 86 
Route 4 : 5 55 13 35 14 64 85 41 63 91 25 6 56 75 
Route 5 : 26 76 42 17 67 29 92 3 22 79 72 18 68 53 
Route 6 : 47 97 30 33 80 39 10 83 60 89 48 9 59 37 98 87 
Route 7 : 15 34 84 16 66 32 82 24 74 65 27 77 8 58 
Route 8 : 19 2 52 44 69 94 11 7 57 61 

--------------------------------------------------------------------------------(Solver execution current time: 105.24297571182251)
[SOLUTION]
AGES
IT: 1
Exec Time: 7.743297576904297
obj_value: 8; obj_routes: 1034
Route 1 : 31 40 12 21 81 62 19 71 44 94 69 18 68 90 
Route 2 : 20 28 49 70 78 99 
Route 3 : 23 1 73 51 11 61 
Route 4 : 15 17 67 35 10 14 64 65 85 60 46 7 57 8 96 58 
Route 5 : 26 76 34 2 29 84 52 3 22 79 4 72 54 53 
Route 6 : 38 30 80 24 43 74 25 75 37 93 87 88 
Route 7 : 13 42 63 92 45 47 97 32 82 36 48 98 95 6 56 86 
Route 8 : 5 55 41 16 66 39 33 27 77 89 83 91 9 59 50 100 

--------------------------------------------------------------------------------(Solver execution current time: 107.37480211257935)
[SOLUTION]
LNS
IT: 40
Exec Time: 2.127941370010376
obj_value: 8; obj_routes: 1034
Route 1 : 31 40 12 21 81 62 19 71 44 94 69 18 68 90 
Route 2 : 20 28 49 70 78 99 
Route 3 : 23 1 73 51 11 61 
Route 4 : 15 17 67 35 10 14 64 65 85 60 46 7 57 8 96 58 
Route 5 : 26 76 34 2 29 84 52 3 22 79 4 72 54 53 
Route 6 : 38 30 80 24 43 74 25 75 37 93 87 88 
Route 7 : 13 42 63 92 45 47 97 32 82 36 48 98 95 6 56 86 
Route 8 : 5 55 41 16 66 39 33 27 77 89 83 91 9 59 50 100 

--------------------------------------------------------------------------------(Solver execution current time: 107.39912676811218)
[SOLUTION]
SetPartitionModel
Exec Time: 0.021694183349609375
Improvedobj_value: 8; obj_routes: 1015
Route 1 : 20 28 49 70 43 78 93 99 38 88 
Route 2 : 23 1 73 51 50 36 100 86 
Route 3 : 26 76 42 17 67 29 92 3 22 79 72 18 68 53 
Route 4 : 31 40 12 21 81 62 71 4 45 46 95 90 96 54 
Route 5 : 5 55 13 35 14 64 85 41 63 91 25 6 56 75 
Route 6 : 47 97 30 33 80 39 10 83 60 89 48 9 59 37 98 87 
Route 7 : 15 34 84 16 66 32 82 24 74 65 27 77 8 58 
Route 8 : 19 2 52 44 69 94 11 7 57 61 

--------------------------------------------------------------------------------(Solver execution current time: 108.95049405097961)
[SOLUTION]
Original Perturbation
Exec Time: 1.550516128540039
obj_value: 8; obj_routes: 1058
Route 1 : 31 40 12 21 81 62 19 71 44 94 69 45 90 95 
Route 2 : 20 28 49 70 78 18 99 38 68 88 
Route 3 : 23 1 73 51 11 61 
Route 4 : 15 30 80 35 10 14 64 47 97 65 85 60 8 6 56 58 
Route 5 : 26 76 29 17 67 32 82 3 22 79 4 72 54 53 
Route 6 : 2 52 24 74 43 50 93 100 7 57 36 86 
Route 7 : 5 55 13 42 63 92 41 34 91 84 48 37 98 87 
Route 8 : 16 66 39 33 27 77 89 83 9 59 25 46 96 75 

--------------------------------------------------------------------------------(Solver execution current time: 108.95198035240173)
[SOLUTION]
SBMath
IT: 9
ITs witout improving: 9
IT time: 11.45456576347351
Time since begin: 102.33949661254883
obj_value: 8; obj_routes: 1058
Route 1 : 31 40 12 21 81 62 19 71 44 94 69 45 90 95 
Route 2 : 20 28 49 70 78 18 99 38 68 88 
Route 3 : 23 1 73 51 11 61 
Route 4 : 15 30 80 35 10 14 64 47 97 65 85 60 8 6 56 58 
Route 5 : 26 76 29 17 67 32 82 3 22 79 4 72 54 53 
Route 6 : 2 52 24 74 43 50 93 100 7 57 36 86 
Route 7 : 5 55 13 42 63 92 41 34 91 84 48 37 98 87 
Route 8 : 16 66 39 33 27 77 89 83 9 59 25 46 96 75 

--------------------------------------------------------------------------------(Solver execution current time: 108.95219135284424)
[SOLUTION]
SBMath
IT: 9
ITs witout improving: 9
IT time: 11.45456576347351
Time since begin: 102.33949661254883
obj_value: 8; obj_routes: 1014
Route 1 : 31 40 12 21 81 62 19 71 38 44 88 94 69 90 
Route 2 : 20 28 49 70 78 99 
Route 3 : 23 1 73 51 11 61 
Route 4 : 15 30 80 35 10 14 64 43 65 85 60 7 57 93 8 58 
Route 5 : 26 76 34 2 29 84 52 3 22 79 4 72 54 53 
Route 6 : 17 67 24 74 18 25 68 46 75 37 96 87 
Route 7 : 13 42 63 92 45 47 97 32 82 36 48 98 95 6 56 86 
Route 8 : 5 55 41 16 66 39 33 27 77 89 83 91 9 59 50 100 

--------------------------------------------------------------------------------(Solver execution current time: 116.25020837783813)
[SOLUTION]
AGES
IT: 1
Exec Time: 7.29475474357605
obj_value: 8; obj_routes: 1058
Route 1 : 31 40 12 21 81 62 19 71 44 94 69 45 90 95 
Route 2 : 20 28 49 70 78 18 99 38 68 88 
Route 3 : 23 1 73 51 11 61 
Route 4 : 15 30 80 35 10 14 64 47 97 65 85 60 8 6 56 58 
Route 5 : 26 76 29 17 67 32 82 3 22 79 4 72 54 53 
Route 6 : 2 52 24 74 43 50 93 100 7 57 36 86 
Route 7 : 5 55 13 42 63 92 41 34 91 84 48 37 98 87 
Route 8 : 16 66 39 33 27 77 89 83 9 59 25 46 96 75 

--------------------------------------------------------------------------------(Solver execution current time: 119.33832168579102)
[SOLUTION]
LNS
IT: 40
Exec Time: 3.084784746170044
obj_value: 8; obj_routes: 1058
Route 1 : 31 40 12 21 81 62 19 71 44 94 69 45 90 95 
Route 2 : 20 28 49 70 78 18 99 38 68 88 
Route 3 : 23 1 73 51 11 61 
Route 4 : 15 30 80 35 10 14 64 47 97 65 85 60 8 6 56 58 
Route 5 : 26 76 29 17 67 32 82 3 22 79 4 72 54 53 
Route 6 : 2 52 24 74 43 50 93 100 7 57 36 86 
Route 7 : 5 55 13 42 63 92 41 34 91 84 48 37 98 87 
Route 8 : 16 66 39 33 27 77 89 83 9 59 25 46 96 75 

--------------------------------------------------------------------------------(Solver execution current time: 119.36025047302246)
[SOLUTION]
SetPartitionModel
Exec Time: 0.01929473876953125
Improvedobj_value: 8; obj_routes: 1015
Route 1 : 20 28 49 70 43 78 93 99 38 88 
Route 2 : 23 1 73 51 50 36 100 86 
Route 3 : 26 76 42 17 67 29 92 3 22 79 72 18 68 53 
Route 4 : 31 40 12 21 81 62 71 4 45 46 95 90 96 54 
Route 5 : 5 55 13 35 14 64 85 41 63 91 25 6 56 75 
Route 6 : 47 97 30 33 80 39 10 83 60 89 48 9 59 37 98 87 
Route 7 : 15 34 84 16 66 32 82 24 74 65 27 77 8 58 
Route 8 : 19 2 52 44 69 94 11 7 57 61 

--------------------------------------------------------------------------------(Solver execution current time: 120.02138257026672)
[WARNING] Time Limit Exceeded
--------------------------------------------------------------------------------(Solver execution current time: 120.02150416374207)
[WARNING] Searching current best solution.
--------------------------------------------------------------------------------(Solver execution current time: 120.02261281013489)
[WARNING] Current best solution found.
--------------------------------------------------------------------------------(Solver execution current time: 120.02330589294434)
[INFO] Algorithm execution time : 120.02399754524231
--------------------------------------------------------------------------------(Solver execution current time: 120.02399778366089)
[SOLUTION]
Final Solution Verification
====================================
Constraints verification: 
Homogenous Capacity Constraint OK
Time Windwos Constraint OK
Pickup and Delivery Constraint OK
Fixed Requests Constraint OK
Attend All Requests Constraint OK
====================================
Obj Func verification: 
SOLUTION COST OK
------------------------------------
ROUTES TOTAL COST OK
------------------------------------
REQUESTS TOTAL COST OK
------------------------------------
OBJECTIVE VALUE: 8
ROUTES VALUE: 1014
------------------------------------

Best Solution: 
obj_value: 8; obj_routes: 1014
Route 1 : 31 40 12 21 81 62 19 71 38 44 88 94 69 90 
Route 2 : 20 28 49 70 78 99 
Route 3 : 23 1 73 51 11 61 
Route 4 : 15 30 80 35 10 14 64 43 65 85 60 7 57 93 8 58 
Route 5 : 26 76 34 2 29 84 52 3 22 79 4 72 54 53 
Route 6 : 17 67 24 74 18 25 68 46 75 37 96 87 
Route 7 : 13 42 63 92 45 47 97 32 82 36 48 98 95 6 56 86 
Route 8 : 5 55 41 16 66 39 33 27 77 89 83 91 9 59 50 100 

--------------------------------------------------------------------------------